decision_x1=[0,2];
decision_x2=[0,2];
decision_x3=[0,2];
decision_x4=[0,2];
decision_x5=[0,2];
decision_x6=[0,2];
decision_x7=[0,2];
decision_x8=[0,2];
decision_x9=[0,2];
decision_x10=[0,2];
random_y1=[0,2];
random_y2=[0,2];
constraint_x3_x1=[
0,0,2.2|
0,1,9.5|
0,2,0.53|
1,0,2.5|
1,1,5.4|
1,2,3.2|
2,0,9.7|
2,1,9.6|
2,2,6.6|
];
constraint_x3_x2=[
0,0,0.8|
0,1,7|
0,2,4.5|
1,0,3.3|
1,1,0.69|
1,2,3.3|
2,0,3.4|
2,1,3.7|
2,2,8.1|
];
constraint_x4_x2=[
0,0,5.3|
0,1,8.4|
0,2,4.2|
1,0,9.5|
1,1,7.5|
1,2,0.49|
2,0,7.4|
2,1,4.6|
2,2,9.2|
];
constraint_x4_x3=[
0,0,1.8|
0,1,9.4|
0,2,8.2|
1,0,4|
1,1,4.3|
1,2,0.36|
2,0,6.7|
2,1,8.8|
2,2,2.2|
];
constraint_x5_x3=[
0,0,1.8|
0,1,9.5|
0,2,2.3|
1,0,8.4|
1,1,5.2|
1,2,8.7|
2,0,1.6|
2,1,7.5|
2,2,2.1|
];
constraint_x5_x4=[
0,0,5|
0,1,9.7|
0,2,5.5|
1,0,8|
1,1,0.43|
1,2,3|
2,0,7.9|
2,1,1.7|
2,2,5.9|
];
constraint_x6_x2=[
0,0,3.4|
0,1,2.8|
0,2,8.1|
1,0,5.8|
1,1,0.57|
1,2,1.3|
2,0,9.3|
2,1,5.4|
2,2,0.18|
];
constraint_x6_x5=[
0,0,5.9|
0,1,0.25|
0,2,3.4|
1,0,9.1|
1,1,6.9|
1,2,2.3|
2,0,4|
2,1,6.1|
2,2,0.023|
];
constraint_x7_x2=[
0,0,8.6|
0,1,9.1|
0,2,5.4|
1,0,0.18|
1,1,2.7|
1,2,4.7|
2,0,5.6|
2,1,4.5|
2,2,7.4|
];
constraint_x7_x5=[
0,0,4.7|
0,1,6|
0,2,4.9|
1,0,6.9|
1,1,9.6|
1,2,7.1|
2,0,5.9|
2,1,7.3|
2,2,0.93|
];
constraint_x7_x6=[
0,0,2|
0,1,1.9|
0,2,4.9|
1,0,8|
1,1,6.3|
1,2,0.47|
2,0,7.2|
2,1,2.5|
2,2,0.24|
];
constraint_x8_x1=[
0,0,8.3|
0,1,4|
0,2,3.1|
1,0,6.8|
1,1,7.2|
1,2,8.7|
2,0,4|
2,1,3.3|
2,2,2.5|
];
constraint_x8_x5=[
0,0,1.7|
0,1,7.7|
0,2,4.5|
1,0,3.5|
1,1,2.9|
1,2,7.3|
2,0,6.4|
2,1,8.9|
2,2,8.2|
];
constraint_x8_x6=[
0,0,2.9|
0,1,0.62|
0,2,5.5|
1,0,6.6|
1,1,8.1|
1,2,7|
2,0,7.1|
2,1,6.3|
2,2,5.3|
];
constraint_x9_x2=[
0,0,9.6|
0,1,3.8|
0,2,6.8|
1,0,4.5|
1,1,10|
1,2,8.1|
2,0,0.9|
2,1,0.43|
2,2,0.54|
];
constraint_x9_x3=[
0,0,7.2|
0,1,0.11|
0,2,9.3|
1,0,7.6|
1,1,8.1|
1,2,7.4|
2,0,9.2|
2,1,8.5|
2,2,6.5|
];
constraint_x9_x4=[
0,0,5.6|
0,1,8.3|
0,2,2.8|
1,0,9.6|
1,1,9.3|
1,2,9.7|
2,0,3.6|
2,1,9.3|
2,2,4.7|
];
constraint_x9_x5=[
0,0,9.3|
0,1,8.8|
0,2,8.5|
1,0,1.1|
1,1,1.9|
1,2,5.2|
2,0,0.47|
2,1,9.5|
2,2,2.7|
];
constraint_x10_x3=[
0,0,8|
0,1,8.6|
0,2,7|
1,0,7|
1,1,2.1|
1,2,5.6|
2,0,2.3|
2,1,4.4|
2,2,0.67|
];
constraint_x10_x5=[
0,0,4.1|
0,1,4.6|
0,2,5.1|
1,0,6.6|
1,1,6.1|
1,2,4.3|
2,0,8.6|
2,1,8.1|
2,2,3.9|
];
constraint_x10_x6=[
0,0,4.9|
0,1,3.6|
0,2,6.5|
1,0,2.1|
1,1,1.4|
1,2,5|
2,0,2.3|
2,1,3.2|
2,2,8.9|
];
constraint_x10_x7=[
0,0,4.2|
0,1,5.3|
0,2,1.6|
1,0,7.7|
1,1,9.5|
1,2,4|
2,0,6.7|
2,1,9.3|
2,2,4.6|
];
constraint_x10_x8=[
0,0,4.8|
0,1,5.4|
0,2,4.5|
1,0,3.4|
1,1,0.9|
1,2,5.7|
2,0,9.6|
2,1,9.2|
2,2,8.6|
];
constraint_x1_y1=[
0,0,7.3|
0,1,1.3|
0,2,3.9|
1,0,8.9|
1,1,1.2|
1,2,3.6|
2,0,5.5|
2,1,7|
2,2,8.6|
];
constraint_x2_y2=[
0,0,7.2|
0,1,5.3|
0,2,5.5|
1,0,0.18|
1,1,5.9|
1,2,5.7|
2,0,9.7|
2,1,9.6|
2,2,9.2|
];
initial_distribution_y1=[0.49,0.34,0.17];
initial_distribution_y2=[0.3,0.45,0.25];
transition_y1=[
0.6,0.27,0.13|
0.18,0.33,0.48|
0.43,0.44,0.12|
];
transition_y2=[
0.47,0.21,0.31|
0.12,0.12,0.76|
0.13,0.35,0.52|
];
